NAME : portcgen-17-7
COMMENT : portcgen N=17, seed=7
TYPE : TSP
DIMENSION : 17
EDGE_WEIGHT_TYPE : EUC_2D
NODE_COORD_SECTION
1 154875 -219043
2 -65796 392667
3 189688 -73000
4 -291240 -307143
5 -410448 104564
6 -21055 -205361
7 -469757 -258234
8 225253 226048
9 -12199 -273277
10 940 -44103
11 155742 -28683
12 27545 -378828
13 -587894 195101
14 -358473 242357
15 455670 335479
16 -111970 148987
17 -83814 -292971
